
Gurobi 6.5.2 (linux64) logging started Mon Aug 29 10:57:52 2016

Optimize a model with 41 rows, 153 columns and 309 nonzeros
Coefficient statistics:
  Matrix range    [1e+00, 2e+00]
  Objective range [2e+00, 1e+02]
  Bounds range    [1e+00, 1e+00]
  RHS range       [1e+00, 1e+00]
Found heuristic solution: objective 992
Presolve removed 20 rows and 18 columns
Presolve time: 0.00s
Presolved: 21 rows, 135 columns, 271 nonzeros
Variable types: 0 continuous, 135 integer (135 binary)

Root relaxation: objective 4.530000e+02, 32 iterations, 0.00 seconds

    Nodes    |    Current Node    |     Objective Bounds      |     Work
 Expl Unexpl |  Obj  Depth IntInf | Incumbent    BestBd   Gap | It/Node Time

     0     0  453.00000    0    6  992.00000  453.00000  54.3%     -    0s
H    0     0                     505.0000000  453.00000  10.3%     -    0s
H    0     0                     492.0000000  453.00000  7.93%     -    0s
H    0     0                     482.0000000  453.00000  6.02%     -    0s
H    0     0                     471.0000000  453.00000  3.82%     -    0s
H    0     0                     468.0000000  453.00000  3.21%     -    0s
*    0     0               0     458.0000000  458.00000  0.00%     -    0s

Cutting planes:
  Gomory: 2
  Zero half: 2

Explored 0 nodes (37 simplex iterations) in 0.00 seconds
Thread count was 8 (of 8 available processors)

Optimal solution found (tolerance 1.00e-04)
Best objective 4.580000000000e+02, best bound 4.580000000000e+02, gap 0.0%
